\ Model _copy
\ LP format - for model browsing. Use MPS format to capture full model detail.
Maximize
 
Subject To
 charter_upper_capacity[NGBON,75,DESCON_3]: - 160000 w[NGBON,75,DESCON_3]
   + g[NGBON,75,DESCON_3] <= 0
 charter_lower_capacity[NGBON,75,DESCON_3]: 135000 w[NGBON,75,DESCON_3]
   - g[NGBON,75,DESCON_3] <= 0
Bounds
 g[NGBON,75,DESCON_3] = 0.00599375713500194
Binaries
 w[NGBON,75,DESCON_3]
End
